p cnf 895 2145
e 1 2 3 4 5 6 7 8 9 10 11 12 13 14 15 16 17 0
a 18 19 20 21 22 23 24 25 26 27 28 29 30 31 32 33 34 0
e 35 36 37 38 39 40 41 42 43 44 45 46 47 48 49 50 51 0
a 52 53 54 55 56 57 58 59 60 61 62 63 64 65 66 67 68 0
e 69 70 71 72 73 74 75 76 77 78 79 80 81 82 83 84 85 0
a 86 87 88 89 90 91 92 93 94 95 96 97 98 99 100 101 102 0
e 103 104 105 106 107 108 109 110 111 112 113 114 115 116 117 118 119 0
a 120 121 122 123 124 125 126 127 128 129 130 131 132 133 134 135 136 0
e 137 138 139 140 141 142 143 144 145 146 147 148 149 150 151 152 153 0
a 154 155 156 157 158 159 160 161 162 163 164 165 166 167 168 169 170 0
e 171 172 173 174 175 176 177 178 179 180 181 182 183 184 185 186 187 0
a 188 189 190 191 192 193 194 195 196 197 198 199 200 201 202 203 204 0
e 205 206 207 208 209 210 211 212 213 214 215 216 217 218 219 220 221 0
a 222 223 224 225 226 227 228 229 230 231 232 233 234 235 236 237 238 0
e 239 240 241 242 243 244 245 246 247 248 249 250 251 252 253 254 255 0
a 256 257 258 259 260 261 262 263 264 265 266 267 268 269 270 271 272 0
e 273 274 275 276 277 278 279 280 281 282 283 284 285 286 287 288 289 475 476 714 799 879 802 486 500 581 700 713 365 722 870 704 384 460 720 888 524 598 673 711 858 336 577 442 466 813 749 351 510 816 891 446 639 759 499 781 481 617 708 856 432 658 716 735 887 776 448 519 755 890 848 747 387 731 822 409 431 614 404 690 730 679 737 832 379 575 628 421 701 516 697 698 875 582 321 852 436 810 434 474 553 454 545 654 811 370 425 453 746 874 319 715 764 773 296 644 368 609 441 760 838 495 815 343 726 334 767 559 787 426 447 526 549 823 405 456 345 688 330 543 668 579 603 622 498 339 360 629 399 699 854 865 318 367 645 671 636 437 580 664 295 381 635 841 880 299 310 484 552 605 801 313 373 694 709 529 307 395 357 845 413 705 488 504 660 824 834 331 860 305 397 435 756 864 483 555 783 784 569 633 863 298 363 806 386 611 509 637 646 511 624 833 458 732 762 346 508 619 733 881 301 530 798 868 362 573 618 485 534 592 793 300 461 774 835 861 297 451 523 402 567 778 738 803 290 521 535 877 406 444 850 424 463 849 853 369 378 616 383 831 340 479 741 433 659 734 304 400 449 791 829 408 422 464 576 800 539 836 562 326 366 503 517 878 361 641 740 794 808 669 819 842 389 727 302 518 540 665 672 309 411 537 292 323 586 494 587 394 601 753 786 341 538 563 678 443 684 780 818 352 371 544 828 548 430 574 710 457 655 414 652 317 376 663 338 439 627 745 393 751 883 721 728 837 536 584 817 398 482 522 599 612 683 412 602 809 859 866 527 480 542 686 712 311 496 556 604 491 693 418 657 666 821 377 473 661 675 702 419 528 590 687 785 472 795 291 546 623 867 396 642 695 717 754 718 729 744 385 469 380 696 761 606 725 358 452 316 578 583 873 320 497 564 662 322 342 410 615 689 770 876 354 356 621 648 407 541 507 830 470 533 796 886 308 332 429 532 739 613 667 743 757 758 459 640 719 525 572 772 438 467 862 327 607 382 315 844 374 417 653 804 347 513 634 314 445 591 894 589 847 392 763 505 506 777 420 892 568 570 355 706 349 471 560 748 390 685 790 329 674 782 620 676 681 588 723 650 692 703 597 792 857 884 306 440 493 303 558 643 312 324 328 649 691 846 895 391 416 515 872 375 820 333 489 610 632 372 455 656 388 492 707 827 450 502 512 348 401 359 855 514 631 871 547 677 814 415 554 771 670 736 843 551 561 797 788 851 807 337 840 889 423 812 600 651 682 742 477 294 638 766 487 501 520 594 595 596 593 353 805 428 825 765 565 325 869 468 630 462 680 768 465 293 403 571 769 893 647 752 775 826 490 626 779 839 427 531 566 789 478 585 724 625 885 350 364 557 750 882 335 344 550 608 0
290 0
291 0
292 0
-273 293 0
273 -293 0
-274 294 0
274 -294 0
-275 295 0
275 -295 0
-276 296 0
276 -296 0
-277 297 0
277 -297 0
-278 298 0
278 -298 0
-279 299 0
279 -299 0
-280 300 0
280 -300 0
-281 301 0
281 -301 0
-282 302 0
282 -302 0
-283 303 0
283 -303 0
-284 304 0
284 -304 0
-285 305 0
285 -305 0
-286 306 0
286 -306 0
-287 307 0
287 -307 0
-288 308 0
288 -308 0
-289 309 0
289 -309 0
-1 35 0
-2 36 0
-3 37 0
-4 38 0
-5 39 0
-6 40 0
-7 41 0
-8 42 0
-9 43 0
-10 44 0
-11 45 0
-12 46 0
-13 47 0
-14 48 0
-15 49 0
-16 50 0
-17 51 0
-35 69 0
-36 70 0
-37 71 0
-38 72 0
-39 73 0
-40 74 0
-41 75 0
-42 76 0
-43 77 0
-44 78 0
-45 79 0
-46 80 0
-47 81 0
-48 82 0
-49 83 0
-50 84 0
-51 85 0
-69 103 0
-70 104 0
-71 105 0
-72 106 0
-73 107 0
-74 108 0
-75 109 0
-76 110 0
-77 111 0
-78 112 0
-79 113 0
-80 114 0
-81 115 0
-82 116 0
-83 117 0
-84 118 0
-85 119 0
-103 137 0
-104 138 0
-105 139 0
-106 140 0
-107 141 0
-108 142 0
-109 143 0
-110 144 0
-111 145 0
-112 146 0
-113 147 0
-114 148 0
-115 149 0
-116 150 0
-117 151 0
-118 152 0
-119 153 0
-137 171 0
-138 172 0
-139 173 0
-140 174 0
-141 175 0
-142 176 0
-143 177 0
-144 178 0
-145 179 0
-146 180 0
-147 181 0
-148 182 0
-149 183 0
-150 184 0
-151 185 0
-152 186 0
-153 187 0
-171 205 0
-172 206 0
-173 207 0
-174 208 0
-175 209 0
-176 210 0
-177 211 0
-178 212 0
-179 213 0
-180 214 0
-181 215 0
-182 216 0
-183 217 0
-184 218 0
-185 219 0
-186 220 0
-187 221 0
-205 239 0
-206 240 0
-207 241 0
-208 242 0
-209 243 0
-210 244 0
-211 245 0
-212 246 0
-213 247 0
-214 248 0
-215 249 0
-216 250 0
-217 251 0
-218 252 0
-219 253 0
-220 254 0
-221 255 0
-239 273 0
-240 274 0
-241 275 0
-242 276 0
-243 277 0
-244 278 0
-245 279 0
-246 280 0
-247 281 0
-248 282 0
-249 283 0
-250 284 0
-251 285 0
-252 286 0
-253 287 0
-254 288 0
-255 289 0
310 -1 0
-310 1 0
-310 311 0
311 -2 0
310 -311 2 0
-310 312 -2 0
-312 2 0
310 -312 0
-311 313 0
313 -3 0
311 -313 3 0
-312 314 0
-311 314 -3 0
312 -314 3 0
311 -314 0
-313 315 0
315 -4 0
313 -315 4 0
-314 316 0
-313 316 -4 0
314 -316 4 0
313 -316 0
-315 317 0
317 -5 0
315 -317 5 0
-316 318 0
-315 318 -5 0
316 -318 5 0
315 -318 0
-317 319 0
319 -6 0
317 -319 6 0
-318 320 0
-317 320 -6 0
318 -320 6 0
317 -320 0
-319 321 0
321 -7 0
319 -321 7 0
-320 322 0
-319 322 -7 0
320 -322 7 0
319 -322 0
-321 323 0
323 -8 0
321 -323 8 0
-322 324 0
-321 324 -8 0
322 -324 8 0
321 -324 0
-323 325 0
325 -9 0
323 -325 9 0
-324 326 0
-323 326 -9 0
324 -326 9 0
323 -326 0
-325 327 0
327 -10 0
325 -327 10 0
-326 328 0
-325 328 -10 0
326 -328 10 0
325 -328 0
-327 329 0
329 -11 0
327 -329 11 0
-328 330 0
-327 330 -11 0
328 -330 11 0
327 -330 0
-329 331 0
331 -12 0
329 -331 12 0
-330 332 0
-329 332 -12 0
330 -332 12 0
329 -332 0
-331 333 0
333 -13 0
331 -333 13 0
-332 334 0
-331 334 -13 0
332 -334 13 0
331 -334 0
-333 335 0
335 -14 0
333 -335 14 0
-334 336 0
-333 336 -14 0
334 -336 14 0
333 -336 0
-335 337 0
337 -15 0
335 -337 15 0
-336 338 0
-335 338 -15 0
336 -338 15 0
335 -338 0
-337 339 0
339 -16 0
337 -339 16 0
-338 340 0
-337 340 -16 0
338 -340 16 0
337 -340 0
-339 341 0
341 -17 0
339 -341 17 0
-340 342 0
-339 342 -17 0
340 -342 17 0
339 -342 0
-343 341 0
-343 -342 0
344 1 -35 0
-344 -1 0
-344 35 0
-344 345 0
345 2 -36 0
344 -345 -2 0
344 -345 36 0
-344 346 2 -36 0
-346 -2 0
-346 36 0
344 -346 0
-345 347 0
347 3 -37 0
345 -347 -3 0
345 -347 37 0
-346 348 0
-345 348 3 -37 0
346 -348 -3 0
346 -348 37 0
345 -348 0
-347 349 0
349 4 -38 0
347 -349 -4 0
347 -349 38 0
-348 350 0
-347 350 4 -38 0
348 -350 -4 0
348 -350 38 0
347 -350 0
-349 351 0
351 5 -39 0
349 -351 -5 0
349 -351 39 0
-350 352 0
-349 352 5 -39 0
350 -352 -5 0
350 -352 39 0
349 -352 0
-351 353 0
353 6 -40 0
351 -353 -6 0
351 -353 40 0
-352 354 0
-351 354 6 -40 0
352 -354 -6 0
352 -354 40 0
351 -354 0
-353 355 0
355 7 -41 0
353 -355 -7 0
353 -355 41 0
-354 356 0
-353 356 7 -41 0
354 -356 -7 0
354 -356 41 0
353 -356 0
-355 357 0
357 8 -42 0
355 -357 -8 0
355 -357 42 0
-356 358 0
-355 358 8 -42 0
356 -358 -8 0
356 -358 42 0
355 -358 0
-357 359 0
359 9 -43 0
357 -359 -9 0
357 -359 43 0
-358 360 0
-357 360 9 -43 0
358 -360 -9 0
358 -360 43 0
357 -360 0
-359 361 0
361 10 -44 0
359 -361 -10 0
359 -361 44 0
-360 362 0
-359 362 10 -44 0
360 -362 -10 0
360 -362 44 0
359 -362 0
-361 363 0
363 11 -45 0
361 -363 -11 0
361 -363 45 0
-362 364 0
-361 364 11 -45 0
362 -364 -11 0
362 -364 45 0
361 -364 0
-363 365 0
365 12 -46 0
363 -365 -12 0
363 -365 46 0
-364 366 0
-363 366 12 -46 0
364 -366 -12 0
364 -366 46 0
363 -366 0
-365 367 0
367 13 -47 0
365 -367 -13 0
365 -367 47 0
-366 368 0
-365 368 13 -47 0
366 -368 -13 0
366 -368 47 0
365 -368 0
-367 369 0
369 14 -48 0
367 -369 -14 0
367 -369 48 0
-368 370 0
-367 370 14 -48 0
368 -370 -14 0
368 -370 48 0
367 -370 0
-369 371 0
371 15 -49 0
369 -371 -15 0
369 -371 49 0
-370 372 0
-369 372 15 -49 0
370 -372 -15 0
370 -372 49 0
369 -372 0
-371 373 0
373 16 -50 0
371 -373 -16 0
371 -373 50 0
-372 374 0
-371 374 16 -50 0
372 -374 -16 0
372 -374 50 0
371 -374 0
-373 375 0
375 17 -51 0
373 -375 -17 0
373 -375 51 0
-374 376 0
-373 376 17 -51 0
374 -376 -17 0
374 -376 51 0
373 -376 0
-343 375 0
-343 -376 0
377 35 -69 0
-377 -35 0
-377 69 0
-377 378 0
378 36 -70 0
377 -378 -36 0
377 -378 70 0
-377 379 36 -70 0
-379 -36 0
-379 70 0
377 -379 0
-378 380 0
380 37 -71 0
378 -380 -37 0
378 -380 71 0
-379 381 0
-378 381 37 -71 0
379 -381 -37 0
379 -381 71 0
378 -381 0
-380 382 0
382 38 -72 0
380 -382 -38 0
380 -382 72 0
-381 383 0
-380 383 38 -72 0
381 -383 -38 0
381 -383 72 0
380 -383 0
-382 384 0
384 39 -73 0
382 -384 -39 0
382 -384 73 0
-383 385 0
-382 385 39 -73 0
383 -385 -39 0
383 -385 73 0
382 -385 0
-384 386 0
386 40 -74 0
384 -386 -40 0
384 -386 74 0
-385 387 0
-384 387 40 -74 0
385 -387 -40 0
385 -387 74 0
384 -387 0
-386 388 0
388 41 -75 0
386 -388 -41 0
386 -388 75 0
-387 389 0
-386 389 41 -75 0
387 -389 -41 0
387 -389 75 0
386 -389 0
-388 390 0
390 42 -76 0
388 -390 -42 0
388 -390 76 0
-389 391 0
-388 391 42 -76 0
389 -391 -42 0
389 -391 76 0
388 -391 0
-390 392 0
392 43 -77 0
390 -392 -43 0
390 -392 77 0
-391 393 0
-390 393 43 -77 0
391 -393 -43 0
391 -393 77 0
390 -393 0
-392 394 0
394 44 -78 0
392 -394 -44 0
392 -394 78 0
-393 395 0
-392 395 44 -78 0
393 -395 -44 0
393 -395 78 0
392 -395 0
-394 396 0
396 45 -79 0
394 -396 -45 0
394 -396 79 0
-395 397 0
-394 397 45 -79 0
395 -397 -45 0
395 -397 79 0
394 -397 0
-396 398 0
398 46 -80 0
396 -398 -46 0
396 -398 80 0
-397 399 0
-396 399 46 -80 0
397 -399 -46 0
397 -399 80 0
396 -399 0
-398 400 0
400 47 -81 0
398 -400 -47 0
398 -400 81 0
-399 401 0
-398 401 47 -81 0
399 -401 -47 0
399 -401 81 0
398 -401 0
-400 402 0
402 48 -82 0
400 -402 -48 0
400 -402 82 0
-401 403 0
-400 403 48 -82 0
401 -403 -48 0
401 -403 82 0
400 -403 0
-402 404 0
404 49 -83 0
402 -404 -49 0
402 -404 83 0
-403 405 0
-402 405 49 -83 0
403 -405 -49 0
403 -405 83 0
402 -405 0
-404 406 0
406 50 -84 0
404 -406 -50 0
404 -406 84 0
-405 407 0
-404 407 50 -84 0
405 -407 -50 0
405 -407 84 0
404 -407 0
-406 408 0
408 51 -85 0
406 -408 -51 0
406 -408 85 0
-407 409 0
-406 409 51 -85 0
407 -409 -51 0
407 -409 85 0
406 -409 0
-343 408 0
-343 -409 0
410 69 -103 0
-410 -69 0
-410 103 0
-410 411 0
411 70 -104 0
410 -411 -70 0
410 -411 104 0
-410 412 70 -104 0
-412 -70 0
-412 104 0
410 -412 0
-411 413 0
413 71 -105 0
411 -413 -71 0
411 -413 105 0
-412 414 0
-411 414 71 -105 0
412 -414 -71 0
412 -414 105 0
411 -414 0
-413 415 0
415 72 -106 0
413 -415 -72 0
413 -415 106 0
-414 416 0
-413 416 72 -106 0
414 -416 -72 0
414 -416 106 0
413 -416 0
-415 417 0
417 73 -107 0
415 -417 -73 0
415 -417 107 0
-416 418 0
-415 418 73 -107 0
416 -418 -73 0
416 -418 107 0
415 -418 0
-417 419 0
419 74 -108 0
417 -419 -74 0
417 -419 108 0
-418 420 0
-417 420 74 -108 0
418 -420 -74 0
418 -420 108 0
417 -420 0
-419 421 0
421 75 -109 0
419 -421 -75 0
419 -421 109 0
-420 422 0
-419 422 75 -109 0
420 -422 -75 0
420 -422 109 0
419 -422 0
-421 423 0
423 76 -110 0
421 -423 -76 0
421 -423 110 0
-422 424 0
-421 424 76 -110 0
422 -424 -76 0
422 -424 110 0
421 -424 0
-423 425 0
425 77 -111 0
423 -425 -77 0
423 -425 111 0
-424 426 0
-423 426 77 -111 0
424 -426 -77 0
424 -426 111 0
423 -426 0
-425 427 0
427 78 -112 0
425 -427 -78 0
425 -427 112 0
-426 428 0
-425 428 78 -112 0
426 -428 -78 0
426 -428 112 0
425 -428 0
-427 429 0
429 79 -113 0
427 -429 -79 0
427 -429 113 0
-428 430 0
-427 430 79 -113 0
428 -430 -79 0
428 -430 113 0
427 -430 0
-429 431 0
431 80 -114 0
429 -431 -80 0
429 -431 114 0
-430 432 0
-429 432 80 -114 0
430 -432 -80 0
430 -432 114 0
429 -432 0
-431 433 0
433 81 -115 0
431 -433 -81 0
431 -433 115 0
-432 434 0
-431 434 81 -115 0
432 -434 -81 0
432 -434 115 0
431 -434 0
-433 435 0
435 82 -116 0
433 -435 -82 0
433 -435 116 0
-434 436 0
-433 436 82 -116 0
434 -436 -82 0
434 -436 116 0
433 -436 0
-435 437 0
437 83 -117 0
435 -437 -83 0
435 -437 117 0
-436 438 0
-435 438 83 -117 0
436 -438 -83 0
436 -438 117 0
435 -438 0
-437 439 0
439 84 -118 0
437 -439 -84 0
437 -439 118 0
-438 440 0
-437 440 84 -118 0
438 -440 -84 0
438 -440 118 0
437 -440 0
-439 441 0
441 85 -119 0
439 -441 -85 0
439 -441 119 0
-440 442 0
-439 442 85 -119 0
440 -442 -85 0
440 -442 119 0
439 -442 0
-343 441 0
-343 -442 0
443 103 -137 0
-443 -103 0
-443 137 0
-443 444 0
444 104 -138 0
443 -444 -104 0
443 -444 138 0
-443 445 104 -138 0
-445 -104 0
-445 138 0
443 -445 0
-444 446 0
446 105 -139 0
444 -446 -105 0
444 -446 139 0
-445 447 0
-444 447 105 -139 0
445 -447 -105 0
445 -447 139 0
444 -447 0
-446 448 0
448 106 -140 0
446 -448 -106 0
446 -448 140 0
-447 449 0
-446 449 106 -140 0
447 -449 -106 0
447 -449 140 0
446 -449 0
-448 450 0
450 107 -141 0
448 -450 -107 0
448 -450 141 0
-449 451 0
-448 451 107 -141 0
449 -451 -107 0
449 -451 141 0
448 -451 0
-450 452 0
452 108 -142 0
450 -452 -108 0
450 -452 142 0
-451 453 0
-450 453 108 -142 0
451 -453 -108 0
451 -453 142 0
450 -453 0
-452 454 0
454 109 -143 0
452 -454 -109 0
452 -454 143 0
-453 455 0
-452 455 109 -143 0
453 -455 -109 0
453 -455 143 0
452 -455 0
-454 456 0
456 110 -144 0
454 -456 -110 0
454 -456 144 0
-455 457 0
-454 457 110 -144 0
455 -457 -110 0
455 -457 144 0
454 -457 0
-456 458 0
458 111 -145 0
456 -458 -111 0
456 -458 145 0
-457 459 0
-456 459 111 -145 0
457 -459 -111 0
457 -459 145 0
456 -459 0
-458 460 0
460 112 -146 0
458 -460 -112 0
458 -460 146 0
-459 461 0
-458 461 112 -146 0
459 -461 -112 0
459 -461 146 0
458 -461 0
-460 462 0
462 113 -147 0
460 -462 -113 0
460 -462 147 0
-461 463 0
-460 463 113 -147 0
461 -463 -113 0
461 -463 147 0
460 -463 0
-462 464 0
464 114 -148 0
462 -464 -114 0
462 -464 148 0
-463 465 0
-462 465 114 -148 0
463 -465 -114 0
463 -465 148 0
462 -465 0
-464 466 0
466 115 -149 0
464 -466 -115 0
464 -466 149 0
-465 467 0
-464 467 115 -149 0
465 -467 -115 0
465 -467 149 0
464 -467 0
-466 468 0
468 116 -150 0
466 -468 -116 0
466 -468 150 0
-467 469 0
-466 469 116 -150 0
467 -469 -116 0
467 -469 150 0
466 -469 0
-468 470 0
470 117 -151 0
468 -470 -117 0
468 -470 151 0
-469 471 0
-468 471 117 -151 0
469 -471 -117 0
469 -471 151 0
468 -471 0
-470 472 0
472 118 -152 0
470 -472 -118 0
470 -472 152 0
-471 473 0
-470 473 118 -152 0
471 -473 -118 0
471 -473 152 0
470 -473 0
-472 474 0
474 119 -153 0
472 -474 -119 0
472 -474 153 0
-473 475 0
-472 475 119 -153 0
473 -475 -119 0
473 -475 153 0
472 -475 0
-343 474 0
-343 -475 0
476 137 -171 0
-476 -137 0
-476 171 0
-476 477 0
477 138 -172 0
476 -477 -138 0
476 -477 172 0
-476 478 138 -172 0
-478 -138 0
-478 172 0
476 -478 0
-477 479 0
479 139 -173 0
477 -479 -139 0
477 -479 173 0
-478 480 0
-477 480 139 -173 0
478 -480 -139 0
478 -480 173 0
477 -480 0
-479 481 0
481 140 -174 0
479 -481 -140 0
479 -481 174 0
-480 482 0
-479 482 140 -174 0
480 -482 -140 0
480 -482 174 0
479 -482 0
-481 483 0
483 141 -175 0
481 -483 -141 0
481 -483 175 0
-482 484 0
-481 484 141 -175 0
482 -484 -141 0
482 -484 175 0
481 -484 0
-483 485 0
485 142 -176 0
483 -485 -142 0
483 -485 176 0
-484 486 0
-483 486 142 -176 0
484 -486 -142 0
484 -486 176 0
483 -486 0
-485 487 0
487 143 -177 0
485 -487 -143 0
485 -487 177 0
-486 488 0
-485 488 143 -177 0
486 -488 -143 0
486 -488 177 0
485 -488 0
-487 489 0
489 144 -178 0
487 -489 -144 0
487 -489 178 0
-488 490 0
-487 490 144 -178 0
488 -490 -144 0
488 -490 178 0
487 -490 0
-489 491 0
491 145 -179 0
489 -491 -145 0
489 -491 179 0
-490 492 0
-489 492 145 -179 0
490 -492 -145 0
490 -492 179 0
489 -492 0
-491 493 0
493 146 -180 0
491 -493 -146 0
491 -493 180 0
-492 494 0
-491 494 146 -180 0
492 -494 -146 0
492 -494 180 0
491 -494 0
-493 495 0
495 147 -181 0
493 -495 -147 0
493 -495 181 0
-494 496 0
-493 496 147 -181 0
494 -496 -147 0
494 -496 181 0
493 -496 0
-495 497 0
497 148 -182 0
495 -497 -148 0
495 -497 182 0
-496 498 0
-495 498 148 -182 0
496 -498 -148 0
496 -498 182 0
495 -498 0
-497 499 0
499 149 -183 0
497 -499 -149 0
497 -499 183 0
-498 500 0
-497 500 149 -183 0
498 -500 -149 0
498 -500 183 0
497 -500 0
-499 501 0
501 150 -184 0
499 -501 -150 0
499 -501 184 0
-500 502 0
-499 502 150 -184 0
500 -502 -150 0
500 -502 184 0
499 -502 0
-501 503 0
503 151 -185 0
501 -503 -151 0
501 -503 185 0
-502 504 0
-501 504 151 -185 0
502 -504 -151 0
502 -504 185 0
501 -504 0
-503 505 0
505 152 -186 0
503 -505 -152 0
503 -505 186 0
-504 506 0
-503 506 152 -186 0
504 -506 -152 0
504 -506 186 0
503 -506 0
-505 507 0
507 153 -187 0
505 -507 -153 0
505 -507 187 0
-506 508 0
-505 508 153 -187 0
506 -508 -153 0
506 -508 187 0
505 -508 0
-343 507 0
-343 -508 0
509 171 -205 0
-509 -171 0
-509 205 0
-509 510 0
510 172 -206 0
509 -510 -172 0
509 -510 206 0
-509 511 172 -206 0
-511 -172 0
-511 206 0
509 -511 0
-510 512 0
512 173 -207 0
510 -512 -173 0
510 -512 207 0
-511 513 0
-510 513 173 -207 0
511 -513 -173 0
511 -513 207 0
510 -513 0
-512 514 0
514 174 -208 0
512 -514 -174 0
512 -514 208 0
-513 515 0
-512 515 174 -208 0
513 -515 -174 0
513 -515 208 0
512 -515 0
-514 516 0
516 175 -209 0
514 -516 -175 0
514 -516 209 0
-515 517 0
-514 517 175 -209 0
515 -517 -175 0
515 -517 209 0
514 -517 0
-516 518 0
518 176 -210 0
516 -518 -176 0
516 -518 210 0
-517 519 0
-516 519 176 -210 0
517 -519 -176 0
517 -519 210 0
516 -519 0
-518 520 0
520 177 -211 0
518 -520 -177 0
518 -520 211 0
-519 521 0
-518 521 177 -211 0
519 -521 -177 0
519 -521 211 0
518 -521 0
-520 522 0
522 178 -212 0
520 -522 -178 0
520 -522 212 0
-521 523 0
-520 523 178 -212 0
521 -523 -178 0
521 -523 212 0
520 -523 0
-522 524 0
524 179 -213 0
522 -524 -179 0
522 -524 213 0
-523 525 0
-522 525 179 -213 0
523 -525 -179 0
523 -525 213 0
522 -525 0
-524 526 0
526 180 -214 0
524 -526 -180 0
524 -526 214 0
-525 527 0
-524 527 180 -214 0
525 -527 -180 0
525 -527 214 0
524 -527 0
-526 528 0
528 181 -215 0
526 -528 -181 0
526 -528 215 0
-527 529 0
-526 529 181 -215 0
527 -529 -181 0
527 -529 215 0
526 -529 0
-528 530 0
530 182 -216 0
528 -530 -182 0
528 -530 216 0
-529 531 0
-528 531 182 -216 0
529 -531 -182 0
529 -531 216 0
528 -531 0
-530 532 0
532 183 -217 0
530 -532 -183 0
530 -532 217 0
-531 533 0
-530 533 183 -217 0
531 -533 -183 0
531 -533 217 0
530 -533 0
-532 534 0
534 184 -218 0
532 -534 -184 0
532 -534 218 0
-533 535 0
-532 535 184 -218 0
533 -535 -184 0
533 -535 218 0
532 -535 0
-534 536 0
536 185 -219 0
534 -536 -185 0
534 -536 219 0
-535 537 0
-534 537 185 -219 0
535 -537 -185 0
535 -537 219 0
534 -537 0
-536 538 0
538 186 -220 0
536 -538 -186 0
536 -538 220 0
-537 539 0
-536 539 186 -220 0
537 -539 -186 0
537 -539 220 0
536 -539 0
-538 540 0
540 187 -221 0
538 -540 -187 0
538 -540 221 0
-539 541 0
-538 541 187 -221 0
539 -541 -187 0
539 -541 221 0
538 -541 0
-343 540 0
-343 -541 0
542 205 -239 0
-542 -205 0
-542 239 0
-542 543 0
543 206 -240 0
542 -543 -206 0
542 -543 240 0
-542 544 206 -240 0
-544 -206 0
-544 240 0
542 -544 0
-543 545 0
545 207 -241 0
543 -545 -207 0
543 -545 241 0
-544 546 0
-543 546 207 -241 0
544 -546 -207 0
544 -546 241 0
543 -546 0
-545 547 0
547 208 -242 0
545 -547 -208 0
545 -547 242 0
-546 548 0
-545 548 208 -242 0
546 -548 -208 0
546 -548 242 0
545 -548 0
-547 549 0
549 209 -243 0
547 -549 -209 0
547 -549 243 0
-548 550 0
-547 550 209 -243 0
548 -550 -209 0
548 -550 243 0
547 -550 0
-549 551 0
551 210 -244 0
549 -551 -210 0
549 -551 244 0
-550 552 0
-549 552 210 -244 0
550 -552 -210 0
550 -552 244 0
549 -552 0
-551 553 0
553 211 -245 0
551 -553 -211 0
551 -553 245 0
-552 554 0
-551 554 211 -245 0
552 -554 -211 0
552 -554 245 0
551 -554 0
-553 555 0
555 212 -246 0
553 -555 -212 0
553 -555 246 0
-554 556 0
-553 556 212 -246 0
554 -556 -212 0
554 -556 246 0
553 -556 0
-555 557 0
557 213 -247 0
555 -557 -213 0
555 -557 247 0
-556 558 0
-555 558 213 -247 0
556 -558 -213 0
556 -558 247 0
555 -558 0
-557 559 0
559 214 -248 0
557 -559 -214 0
557 -559 248 0
-558 560 0
-557 560 214 -248 0
558 -560 -214 0
558 -560 248 0
557 -560 0
-559 561 0
561 215 -249 0
559 -561 -215 0
559 -561 249 0
-560 562 0
-559 562 215 -249 0
560 -562 -215 0
560 -562 249 0
559 -562 0
-561 563 0
563 216 -250 0
561 -563 -216 0
561 -563 250 0
-562 564 0
-561 564 216 -250 0
562 -564 -216 0
562 -564 250 0
561 -564 0
-563 565 0
565 217 -251 0
563 -565 -217 0
563 -565 251 0
-564 566 0
-563 566 217 -251 0
564 -566 -217 0
564 -566 251 0
563 -566 0
-565 567 0
567 218 -252 0
565 -567 -218 0
565 -567 252 0
-566 568 0
-565 568 218 -252 0
566 -568 -218 0
566 -568 252 0
565 -568 0
-567 569 0
569 219 -253 0
567 -569 -219 0
567 -569 253 0
-568 570 0
-567 570 219 -253 0
568 -570 -219 0
568 -570 253 0
567 -570 0
-569 571 0
571 220 -254 0
569 -571 -220 0
569 -571 254 0
-570 572 0
-569 572 220 -254 0
570 -572 -220 0
570 -572 254 0
569 -572 0
-571 573 0
573 221 -255 0
571 -573 -221 0
571 -573 255 0
-572 574 0
-571 574 221 -255 0
572 -574 -221 0
572 -574 255 0
571 -574 0
-343 573 0
-343 -574 0
575 239 -273 0
-575 -239 0
-575 273 0
-575 576 0
576 240 -274 0
575 -576 -240 0
575 -576 274 0
-575 577 240 -274 0
-577 -240 0
-577 274 0
575 -577 0
-576 578 0
578 241 -275 0
576 -578 -241 0
576 -578 275 0
-577 579 0
-576 579 241 -275 0
577 -579 -241 0
577 -579 275 0
576 -579 0
-578 580 0
580 242 -276 0
578 -580 -242 0
578 -580 276 0
-579 581 0
-578 581 242 -276 0
579 -581 -242 0
579 -581 276 0
578 -581 0
-580 582 0
582 243 -277 0
580 -582 -243 0
580 -582 277 0
-581 583 0
-580 583 243 -277 0
581 -583 -243 0
581 -583 277 0
580 -583 0
-582 584 0
584 244 -278 0
582 -584 -244 0
582 -584 278 0
-583 585 0
-582 585 244 -278 0
583 -585 -244 0
583 -585 278 0
582 -585 0
-584 586 0
586 245 -279 0
584 -586 -245 0
584 -586 279 0
-585 587 0
-584 587 245 -279 0
585 -587 -245 0
585 -587 279 0
584 -587 0
-586 588 0
588 246 -280 0
586 -588 -246 0
586 -588 280 0
-587 589 0
-586 589 246 -280 0
587 -589 -246 0
587 -589 280 0
586 -589 0
-588 590 0
590 247 -281 0
588 -590 -247 0
588 -590 281 0
-589 591 0
-588 591 247 -281 0
589 -591 -247 0
589 -591 281 0
588 -591 0
-590 592 0
592 248 -282 0
590 -592 -248 0
590 -592 282 0
-591 593 0
-590 593 248 -282 0
591 -593 -248 0
591 -593 282 0
590 -593 0
-592 594 0
594 249 -283 0
592 -594 -249 0
592 -594 283 0
-593 595 0
-592 595 249 -283 0
593 -595 -249 0
593 -595 283 0
592 -595 0
-594 596 0
596 250 -284 0
594 -596 -250 0
594 -596 284 0
-595 597 0
-594 597 250 -284 0
595 -597 -250 0
595 -597 284 0
594 -597 0
-596 598 0
598 251 -285 0
596 -598 -251 0
596 -598 285 0
-597 599 0
-596 599 251 -285 0
597 -599 -251 0
597 -599 285 0
596 -599 0
-598 600 0
600 252 -286 0
598 -600 -252 0
598 -600 286 0
-599 601 0
-598 601 252 -286 0
599 -601 -252 0
599 -601 286 0
598 -601 0
-600 602 0
602 253 -287 0
600 -602 -253 0
600 -602 287 0
-601 603 0
-600 603 253 -287 0
601 -603 -253 0
601 -603 287 0
600 -603 0
-602 604 0
604 254 -288 0
602 -604 -254 0
602 -604 288 0
-603 605 0
-602 605 254 -288 0
603 -605 -254 0
603 -605 288 0
602 -605 0
-604 606 0
606 255 -289 0
604 -606 -255 0
604 -606 289 0
-605 607 0
-604 607 255 -289 0
605 -607 -255 0
605 -607 289 0
604 -607 0
-343 606 0
-343 -607 0
-608 18 0
608 -609 19 0
-610 19 0
608 -610 0
609 -611 20 0
610 -612 20 0
609 -612 0
611 -613 21 0
612 -614 21 0
611 -614 0
613 -615 22 0
614 -616 22 0
613 -616 0
615 -617 23 0
616 -618 23 0
615 -618 0
617 -619 24 0
618 -620 24 0
617 -620 0
619 -621 25 0
620 -622 25 0
619 -622 0
621 -623 26 0
622 -624 26 0
621 -624 0
623 -625 27 0
624 -626 27 0
623 -626 0
625 -627 28 0
626 -628 28 0
625 -628 0
627 -629 29 0
628 -630 29 0
627 -630 0
629 -631 30 0
630 -632 30 0
629 -632 0
631 -633 31 0
632 -634 31 0
631 -634 0
633 -635 32 0
634 -636 32 0
633 -636 0
635 -637 33 0
636 -638 33 0
635 -638 0
637 -639 34 0
638 -640 34 0
637 -640 0
-641 52 0
641 -642 53 0
-643 53 0
641 -643 0
642 -644 54 0
643 -645 54 0
642 -645 0
644 -646 55 0
645 -647 55 0
644 -647 0
646 -648 56 0
647 -649 56 0
646 -649 0
648 -650 57 0
649 -651 57 0
648 -651 0
650 -652 58 0
651 -653 58 0
650 -653 0
652 -654 59 0
653 -655 59 0
652 -655 0
654 -656 60 0
655 -657 60 0
654 -657 0
656 -658 61 0
657 -659 61 0
656 -659 0
658 -660 62 0
659 -661 62 0
658 -661 0
660 -662 63 0
661 -663 63 0
660 -663 0
662 -664 64 0
663 -665 64 0
662 -665 0
664 -666 65 0
665 -667 65 0
664 -667 0
666 -668 66 0
667 -669 66 0
666 -669 0
668 -670 67 0
669 -671 67 0
668 -671 0
670 -672 68 0
671 -673 68 0
670 -673 0
-674 86 0
674 -675 87 0
-676 87 0
674 -676 0
675 -677 88 0
676 -678 88 0
675 -678 0
677 -679 89 0
678 -680 89 0
677 -680 0
679 -681 90 0
680 -682 90 0
679 -682 0
681 -683 91 0
682 -684 91 0
681 -684 0
683 -685 92 0
684 -686 92 0
683 -686 0
685 -687 93 0
686 -688 93 0
685 -688 0
687 -689 94 0
688 -690 94 0
687 -690 0
689 -691 95 0
690 -692 95 0
689 -692 0
691 -693 96 0
692 -694 96 0
691 -694 0
693 -695 97 0
694 -696 97 0
693 -696 0
695 -697 98 0
696 -698 98 0
695 -698 0
697 -699 99 0
698 -700 99 0
697 -700 0
699 -701 100 0
700 -702 100 0
699 -702 0
701 -703 101 0
702 -704 101 0
701 -704 0
703 -705 102 0
704 -706 102 0
703 -706 0
-707 120 0
707 -708 121 0
-709 121 0
707 -709 0
708 -710 122 0
709 -711 122 0
708 -711 0
710 -712 123 0
711 -713 123 0
710 -713 0
712 -714 124 0
713 -715 124 0
712 -715 0
714 -716 125 0
715 -717 125 0
714 -717 0
716 -718 126 0
717 -719 126 0
716 -719 0
718 -720 127 0
719 -721 127 0
718 -721 0
720 -722 128 0
721 -723 128 0
720 -723 0
722 -724 129 0
723 -725 129 0
722 -725 0
724 -726 130 0
725 -727 130 0
724 -727 0
726 -728 131 0
727 -729 131 0
726 -729 0
728 -730 132 0
729 -731 132 0
728 -731 0
730 -732 133 0
731 -733 133 0
730 -733 0
732 -734 134 0
733 -735 134 0
732 -735 0
734 -736 135 0
735 -737 135 0
734 -737 0
736 -738 136 0
737 -739 136 0
736 -739 0
-740 154 0
740 -741 155 0
-742 155 0
740 -742 0
741 -743 156 0
742 -744 156 0
741 -744 0
743 -745 157 0
744 -746 157 0
743 -746 0
745 -747 158 0
746 -748 158 0
745 -748 0
747 -749 159 0
748 -750 159 0
747 -750 0
749 -751 160 0
750 -752 160 0
749 -752 0
751 -753 161 0
752 -754 161 0
751 -754 0
753 -755 162 0
754 -756 162 0
753 -756 0
755 -757 163 0
756 -758 163 0
755 -758 0
757 -759 164 0
758 -760 164 0
757 -760 0
759 -761 165 0
760 -762 165 0
759 -762 0
761 -763 166 0
762 -764 166 0
761 -764 0
763 -765 167 0
764 -766 167 0
763 -766 0
765 -767 168 0
766 -768 168 0
765 -768 0
767 -769 169 0
768 -770 169 0
767 -770 0
769 -771 170 0
770 -772 170 0
769 -772 0
-773 188 0
773 -774 189 0
-775 189 0
773 -775 0
774 -776 190 0
775 -777 190 0
774 -777 0
776 -778 191 0
777 -779 191 0
776 -779 0
778 -780 192 0
779 -781 192 0
778 -781 0
780 -782 193 0
781 -783 193 0
780 -783 0
782 -784 194 0
783 -785 194 0
782 -785 0
784 -786 195 0
785 -787 195 0
784 -787 0
786 -788 196 0
787 -789 196 0
786 -789 0
788 -790 197 0
789 -791 197 0
788 -791 0
790 -792 198 0
791 -793 198 0
790 -793 0
792 -794 199 0
793 -795 199 0
792 -795 0
794 -796 200 0
795 -797 200 0
794 -797 0
796 -798 201 0
797 -799 201 0
796 -799 0
798 -800 202 0
799 -801 202 0
798 -801 0
800 -802 203 0
801 -803 203 0
800 -803 0
802 -804 204 0
803 -805 204 0
802 -805 0
-806 222 0
806 -807 223 0
-808 223 0
806 -808 0
807 -809 224 0
808 -810 224 0
807 -810 0
809 -811 225 0
810 -812 225 0
809 -812 0
811 -813 226 0
812 -814 226 0
811 -814 0
813 -815 227 0
814 -816 227 0
813 -816 0
815 -817 228 0
816 -818 228 0
815 -818 0
817 -819 229 0
818 -820 229 0
817 -820 0
819 -821 230 0
820 -822 230 0
819 -822 0
821 -823 231 0
822 -824 231 0
821 -824 0
823 -825 232 0
824 -826 232 0
823 -826 0
825 -827 233 0
826 -828 233 0
825 -828 0
827 -829 234 0
828 -830 234 0
827 -830 0
829 -831 235 0
830 -832 235 0
829 -832 0
831 -833 236 0
832 -834 236 0
831 -834 0
833 -835 237 0
834 -836 237 0
833 -836 0
835 -837 238 0
836 -838 238 0
835 -838 0
-839 256 0
839 -840 257 0
-841 257 0
839 -841 0
840 -842 258 0
841 -843 258 0
840 -843 0
842 -844 259 0
843 -845 259 0
842 -845 0
844 -846 260 0
845 -847 260 0
844 -847 0
846 -848 261 0
847 -849 261 0
846 -849 0
848 -850 262 0
849 -851 262 0
848 -851 0
850 -852 263 0
851 -853 263 0
850 -853 0
852 -854 264 0
853 -855 264 0
852 -855 0
854 -856 265 0
855 -857 265 0
854 -857 0
856 -858 266 0
857 -859 266 0
856 -859 0
858 -860 267 0
859 -861 267 0
858 -861 0
860 -862 268 0
861 -863 268 0
860 -863 0
862 -864 269 0
863 -865 269 0
862 -865 0
864 -866 270 0
865 -867 270 0
864 -867 0
866 -868 271 0
867 -869 271 0
866 -869 0
868 -870 272 0
869 -871 272 0
868 -871 0
1 -18 -293 0
35 -52 -293 0
69 -86 -293 0
103 -120 -293 0
137 -154 -293 0
171 -188 -293 0
205 -222 -293 0
239 -256 -293 0
2 -19 -294 0
36 -53 -294 0
70 -87 -294 0
104 -121 -294 0
138 -155 -294 0
172 -189 -294 0
206 -223 -294 0
240 -257 -294 0
3 -20 -295 0
37 -54 -295 0
71 -88 -295 0
105 -122 -295 0
139 -156 -295 0
173 -190 -295 0
207 -224 -295 0
241 -258 -295 0
4 -21 -296 0
38 -55 -296 0
72 -89 -296 0
106 -123 -296 0
140 -157 -296 0
174 -191 -296 0
208 -225 -296 0
242 -259 -296 0
5 -22 -297 0
39 -56 -297 0
73 -90 -297 0
107 -124 -297 0
141 -158 -297 0
175 -192 -297 0
209 -226 -297 0
243 -260 -297 0
6 -23 -298 0
40 -57 -298 0
74 -91 -298 0
108 -125 -298 0
142 -159 -298 0
176 -193 -298 0
210 -227 -298 0
244 -261 -298 0
7 -24 -299 0
41 -58 -299 0
75 -92 -299 0
109 -126 -299 0
143 -160 -299 0
177 -194 -299 0
211 -228 -299 0
245 -262 -299 0
8 -25 -300 0
42 -59 -300 0
76 -93 -300 0
110 -127 -300 0
144 -161 -300 0
178 -195 -300 0
212 -229 -300 0
246 -263 -300 0
9 -26 -301 0
43 -60 -301 0
77 -94 -301 0
111 -128 -301 0
145 -162 -301 0
179 -196 -301 0
213 -230 -301 0
247 -264 -301 0
10 -27 -302 0
44 -61 -302 0
78 -95 -302 0
112 -129 -302 0
146 -163 -302 0
180 -197 -302 0
214 -231 -302 0
248 -265 -302 0
11 -28 -303 0
45 -62 -303 0
79 -96 -303 0
113 -130 -303 0
147 -164 -303 0
181 -198 -303 0
215 -232 -303 0
249 -266 -303 0
12 -29 -304 0
46 -63 -304 0
80 -97 -304 0
114 -131 -304 0
148 -165 -304 0
182 -199 -304 0
216 -233 -304 0
250 -267 -304 0
13 -30 -305 0
47 -64 -305 0
81 -98 -305 0
115 -132 -305 0
149 -166 -305 0
183 -200 -305 0
217 -234 -305 0
251 -268 -305 0
14 -31 -306 0
48 -65 -306 0
82 -99 -306 0
116 -133 -306 0
150 -167 -306 0
184 -201 -306 0
218 -235 -306 0
252 -269 -306 0
15 -32 -307 0
49 -66 -307 0
83 -100 -307 0
117 -134 -307 0
151 -168 -307 0
185 -202 -307 0
219 -236 -307 0
253 -270 -307 0
16 -33 -308 0
50 -67 -308 0
84 -101 -308 0
118 -135 -308 0
152 -169 -308 0
186 -203 -308 0
220 -237 -308 0
254 -271 -308 0
17 -34 -309 0
51 -68 -309 0
85 -102 -309 0
119 -136 -309 0
153 -170 -309 0
187 -204 -309 0
221 -238 -309 0
255 -272 -309 0
-872 297 0
-872 298 0
-872 294 0
-872 295 0
-872 296 0
872 -297 -298 -294 -295 -296 0
-873 297 0
-873 298 0
-873 294 0
-873 295 0
-873 300 0
-873 301 0
873 -297 -298 -294 -295 -300 -301 0
-874 297 0
-874 298 0
-874 294 0
-874 295 0
-874 300 0
-874 303 0
-874 304 0
874 -297 -298 -294 -295 -300 -303 -304 0
-875 297 0
-875 298 0
-875 299 0
-875 295 0
-875 296 0
875 -297 -298 -299 -295 -296 0
-876 297 0
-876 298 0
-876 299 0
-876 300 0
-876 296 0
876 -297 -298 -299 -300 -296 0
-877 297 0
-877 298 0
-877 299 0
-877 300 0
-877 301 0
877 -297 -298 -299 -300 -301 0
-878 297 0
-878 298 0
-878 299 0
-878 300 0
-878 303 0
-878 304 0
878 -297 -298 -299 -300 -303 -304 0
-879 302 0
-879 298 0
-879 294 0
-879 295 0
-879 296 0
879 -302 -298 -294 -295 -296 0
-880 302 0
-880 298 0
-880 294 0
-880 295 0
-880 300 0
-880 301 0
880 -302 -298 -294 -295 -300 -301 0
-881 302 0
-881 298 0
-881 294 0
-881 295 0
-881 300 0
-881 303 0
-881 304 0
881 -302 -298 -294 -295 -300 -303 -304 0
-882 302 0
-882 298 0
-882 299 0
-882 295 0
-882 296 0
882 -302 -298 -299 -295 -296 0
-883 302 0
-883 298 0
-883 299 0
-883 300 0
-883 296 0
883 -302 -298 -299 -300 -296 0
-884 302 0
-884 298 0
-884 299 0
-884 300 0
-884 301 0
884 -302 -298 -299 -300 -301 0
-885 302 0
-885 298 0
-885 299 0
-885 300 0
-885 303 0
-885 304 0
885 -302 -298 -299 -300 -303 -304 0
-886 305 0
-886 303 0
-886 300 0
-886 296 0
886 -305 -303 -300 -296 0
-887 305 0
-887 303 0
-887 301 0
887 -305 -303 -301 0
-888 305 0
-888 303 0
-888 304 0
888 -305 -303 -304 0
-889 307 0
-889 303 0
-889 300 0
-889 296 0
889 -307 -303 -300 -296 0
-890 307 0
-890 303 0
-890 301 0
890 -307 -303 -301 0
-891 307 0
-891 303 0
-891 304 0
891 -307 -303 -304 0
-892 307 0
-892 308 0
-892 303 0
-892 300 0
-892 296 0
892 -307 -308 -303 -300 -296 0
-893 307 0
-893 308 0
-893 303 0
-893 301 0
893 -307 -308 -303 -301 0
-894 307 0
-894 308 0
-894 303 0
-894 304 0
894 -307 -308 -303 -304 0
-895 872 873 874 875 876 877 878 879 880 881 882 883 884 885 886 887 888 889 890 891 892 893 894 0
-640 -343 0
-673 -343 0
-706 -343 0
-739 -343 0
-772 -343 0
-805 -343 0
-838 -343 0
-871 -343 0
343 640 673 706 739 772 805 838 871 0
895 -343 0
